; benchmark generated from python API
(set-info :status unknown)
(declare-fun x_month () (_ BitVec 32))
(declare-fun x_year () (_ BitVec 32))
(declare-fun x_day () (_ BitVec 32))
(assert
 (let (($x2810 (or (= (_ bv4 32) x_month) (= (_ bv6 32) x_month) (= (_ bv9 32) x_month) (= (_ bv11 32) x_month))))
 (let (($x652 (and (= (_ bv0 32) (bvsmod x_year (_ bv4 32))) (and (distinct (_ bv0 32) (bvsmod x_year (_ bv100 32))) true))))
 (let ((?x2485 (ite (= (_ bv2 32) x_month) (ite (or $x652 (= (_ bv0 32) (bvsmod x_year (_ bv400 32)))) (_ bv29 32) (_ bv28 32)) (ite $x2810 (_ bv30 32) (_ bv31 32)))))
 (let (($x496 (bvsle x_day ?x2485)))
 (let (($x5910 (bvsle (_ bv1 32) x_day)))
 (let (($x3357 (bvsle (_ bv1 32) x_month)))
 (let (($x533 (bvsge (_ bv12 32) x_month)))
 (let (($x3417 (bvsle (_ bv1901 32) x_year)))
 (or (and (= (_ bv1900 32) x_year) (bvsle (_ bv3 32) x_month) $x533 $x5910 $x496) (and $x3417 (bvsge (_ bv2099 32) x_year) $x3357 $x533 $x5910 $x496) (and (= (_ bv2100 32) x_year) $x3357 (bvsge (_ bv2 32) x_month) $x5910 $x496)))))))))))
(assert
 (let (($x1646 (or (bvslt (_ bv1 32) x_month) (and (= (_ bv1 32) x_month) (bvsle (_ bv1 32) x_day)))))
 (let (($x4205 (= (_ bv2023 32) x_year)))
 (or (bvslt (_ bv2023 32) x_year) (and $x4205 $x1646)))))
(assert
 (let (($x5947 (or (bvsgt (_ bv12 32) x_month) (and (= (_ bv12 32) x_month) (bvsge (_ bv31 32) x_day)))))
 (let (($x4205 (= (_ bv2023 32) x_year)))
 (or (bvsgt (_ bv2023 32) x_year) (and $x4205 $x5947)))))
(assert
 (let ((?x5116 (bvadd x_month (bvadd (bvmul (_ bv0 32) (_ bv12 32)) (_ bv0 32)))))
(let ((?x4802 (bvsub (ite (bvuge ?x5116 (_ bv2147483648 32)) (bvsub ?x5116 (_ bv0 32)) ?x5116) (_ bv1 32))))
(let ((?x1915 (bvsmod ?x4802 (_ bv12 32))))
(let ((?x2836 (bvadd ?x1915 (_ bv1 32))))
(let (($x1259 (= (_ bv11 32) ?x2836)))
(let (($x5455 (= (_ bv9 32) ?x2836)))
(let (($x4325 (= (_ bv6 32) ?x2836)))
(let (($x3498 (= (_ bv4 32) ?x2836)))
(let ((?x4770 (bvsdiv ?x4802 (_ bv12 32))))
(let ((?x3338 (ite (and (bvuge ?x4802 (_ bv2147483648 32)) (and (distinct (_ bv0 32) ?x1915) true)) (bvsub ?x4770 (_ bv1 32)) ?x4770)))
(let ((?x1756 (bvadd x_year ?x3338)))
(let (($x4004 (or (and (= (_ bv0 32) (bvsmod ?x1756 (_ bv4 32))) (and (distinct (_ bv0 32) (bvsmod ?x1756 (_ bv100 32))) true)) (= (_ bv0 32) (bvsmod ?x1756 (_ bv400 32))))))
(let (($x3160 (= (_ bv2 32) ?x2836)))
(let ((?x623 (ite $x3160 (ite $x4004 (_ bv29 32) (_ bv28 32)) (ite (or $x3498 $x4325 $x5455 $x1259) (_ bv30 32) (_ bv31 32)))))
(let (($x2817 (bvsgt (_ bv1 32) x_day)))
(let ((?x3906 (ite $x2817 (_ bv1 32) (ite (bvsgt x_day ?x623) ?x623 x_day))))
(let ((?x5546 (ite (bvsgt (_ bv1 32) ?x3906) (_ bv1 32) (ite (bvsgt ?x3906 ?x623) ?x623 ?x3906))))
(let ((?x1854 (ite $x3160 (ite $x4004 (_ bv31 32) (_ bv31 32)) (ite (= (_ bv1 32) ?x2836) (ite $x4004 (_ bv0 32) (_ bv0 32)) (_ bv0 32)))))
(let ((?x5017 (ite $x3498 (ite $x4004 (_ bv91 32) (_ bv90 32)) (ite (= (_ bv3 32) ?x2836) (ite $x4004 (_ bv60 32) (_ bv59 32)) ?x1854))))
(let ((?x3865 (ite $x4325 (ite $x4004 (_ bv152 32) (_ bv151 32)) (ite (= (_ bv5 32) ?x2836) (ite $x4004 (_ bv121 32) (_ bv120 32)) ?x5017))))
(let ((?x2783 (ite (= (_ bv8 32) ?x2836) (ite $x4004 (_ bv213 32) (_ bv212 32)) (ite (= (_ bv7 32) ?x2836) (ite $x4004 (_ bv182 32) (_ bv181 32)) ?x3865))))
(let ((?x4776 (ite (= (_ bv10 32) ?x2836) (ite $x4004 (_ bv274 32) (_ bv273 32)) (ite $x5455 (ite $x4004 (_ bv244 32) (_ bv243 32)) ?x2783))))
(let ((?x1531 (ite (= (_ bv12 32) ?x2836) (ite $x4004 (_ bv335 32) (_ bv334 32)) (ite $x1259 (ite $x4004 (_ bv305 32) (_ bv304 32)) ?x4776))))
(let ((?x4396 (bvadd (bvmul (_ bv365 32) (bvsub ?x1756 (_ bv1 32))) (bvsdiv (bvsub ?x1756 (_ bv1 32)) (_ bv4 32)))))
(let ((?x2263 (bvadd (bvsub ?x4396 (bvsdiv (bvsub ?x1756 (_ bv1 32)) (_ bv100 32))) (bvsdiv (bvsub ?x1756 (_ bv1 32)) (_ bv400 32)))))
(let ((?x5453 (bvadd (bvadd (bvsub (bvadd (bvadd ?x2263 ?x1531) (bvsub ?x5546 (_ bv1 32))) (_ bv730179 32)) (_ bv61 32)) (_ bv730179 32))))
(let ((?x1141 (bvsmod ?x5453 (_ bv146097 32))))
(let ((?x3915 (bvsdiv ?x1141 (_ bv36524 32))))
(let ((?x3222 (ite (bvsle (_ bv4 32) ?x3915) (_ bv3 32) ?x3915)))
(let ((?x4365 (bvsub ?x1141 (bvmul ?x3222 (_ bv36524 32)))))
(let ((?x4482 (bvsmod ?x4365 (_ bv1461 32))))
(let ((?x5519 (bvsdiv ?x4482 (_ bv365 32))))
(let ((?x826 (ite (bvsle (_ bv4 32) ?x5519) (_ bv3 32) ?x5519)))
(let ((?x5549 (bvadd (bvadd (bvmul (bvsdiv ?x5453 (_ bv146097 32)) (_ bv400 32)) (bvmul ?x3222 (_ bv100 32))) (bvmul (bvsdiv ?x4365 (_ bv1461 32)) (_ bv4 32)))))
(let ((?x4170 (bvadd (bvadd ?x5549 ?x826) (_ bv1 32))))
(let (($x4863 (or (and (= (_ bv0 32) (bvsmod ?x4170 (_ bv4 32))) (and (distinct (_ bv0 32) (bvsmod ?x4170 (_ bv100 32))) true)) (= (_ bv0 32) (bvsmod ?x4170 (_ bv400 32))))))
(let ((?x1128 (bvsub ?x4482 (bvmul ?x826 (_ bv365 32)))))
(let ((?x2167 (ite $x4863 (_ bv31 32) (_ bv31 32))))
(let (($x3274 (bvsge ?x1128 ?x2167)))
(let ((?x3269 (ite $x3274 (bvadd (bvsub ?x1128 ?x2167) (_ bv1 32)) (bvadd (bvsub ?x1128 (ite $x4863 (_ bv0 32) (_ bv0 32))) (_ bv1 32)))))
(let ((?x2192 (ite $x4863 (_ bv60 32) (_ bv59 32))))
(let (($x1159 (bvsge ?x1128 ?x2192)))
(let ((?x586 (ite $x4863 (_ bv91 32) (_ bv90 32))))
(let (($x5106 (bvsge ?x1128 ?x586)))
(let ((?x1267 (ite $x5106 (bvadd (bvsub ?x1128 ?x586) (_ bv1 32)) (ite $x1159 (bvadd (bvsub ?x1128 ?x2192) (_ bv1 32)) ?x3269))))
(let ((?x6029 (ite $x4863 (_ bv121 32) (_ bv120 32))))
(let (($x5125 (bvsge ?x1128 ?x6029)))
(let ((?x3452 (ite $x4863 (_ bv152 32) (_ bv151 32))))
(let (($x4945 (bvsge ?x1128 ?x3452)))
(let ((?x5057 (ite $x4945 (bvadd (bvsub ?x1128 ?x3452) (_ bv1 32)) (ite $x5125 (bvadd (bvsub ?x1128 ?x6029) (_ bv1 32)) ?x1267))))
(let ((?x1875 (ite $x4863 (_ bv182 32) (_ bv181 32))))
(let (($x4102 (bvsge ?x1128 ?x1875)))
(let ((?x4631 (ite $x4863 (_ bv213 32) (_ bv212 32))))
(let (($x4137 (bvsge ?x1128 ?x4631)))
(let ((?x4059 (ite $x4137 (bvadd (bvsub ?x1128 ?x4631) (_ bv1 32)) (ite $x4102 (bvadd (bvsub ?x1128 ?x1875) (_ bv1 32)) ?x5057))))
(let ((?x4417 (ite $x4863 (_ bv244 32) (_ bv243 32))))
(let (($x5269 (bvsge ?x1128 ?x4417)))
(let ((?x2062 (ite $x4863 (_ bv274 32) (_ bv273 32))))
(let (($x5711 (bvsge ?x1128 ?x2062)))
(let ((?x5553 (ite $x5711 (bvadd (bvsub ?x1128 ?x2062) (_ bv1 32)) (ite $x5269 (bvadd (bvsub ?x1128 ?x4417) (_ bv1 32)) ?x4059))))
(let ((?x5962 (ite $x4863 (_ bv305 32) (_ bv304 32))))
(let (($x3613 (bvsge ?x1128 ?x5962)))
(let ((?x4823 (ite $x4863 (_ bv335 32) (_ bv334 32))))
(let (($x4943 (bvsge ?x1128 ?x4823)))
(let ((?x3292 (ite $x4943 (bvadd (bvsub ?x1128 ?x4823) (_ bv1 32)) (ite $x3613 (bvadd (bvsub ?x1128 ?x5962) (_ bv1 32)) ?x5553))))
(let (($x3518 (= (_ bv0 32) (_ bv61 32))))
(let ((?x5307 (bvadd x_month (bvadd (bvmul (_ bv0 32) (_ bv12 32)) (_ bv2 32)))))
(let ((?x1270 (bvsub (ite (bvuge ?x5307 (_ bv2147483648 32)) (bvsub ?x5307 (_ bv0 32)) ?x5307) (_ bv1 32))))
(let ((?x679 (bvsmod ?x1270 (_ bv12 32))))
(let ((?x5971 (bvadd ?x679 (_ bv1 32))))
(let (($x4696 (= (_ bv11 32) ?x5971)))
(let (($x1951 (= (_ bv9 32) ?x5971)))
(let (($x5802 (= (_ bv6 32) ?x5971)))
(let (($x5995 (= (_ bv4 32) ?x5971)))
(let ((?x1525 (bvsdiv ?x1270 (_ bv12 32))))
(let ((?x3664 (ite (and (bvuge ?x1270 (_ bv2147483648 32)) (and (distinct (_ bv0 32) ?x679) true)) (bvsub ?x1525 (_ bv1 32)) ?x1525)))
(let ((?x2523 (bvadd x_year ?x3664)))
(let (($x4343 (or (and (= (_ bv0 32) (bvsmod ?x2523 (_ bv4 32))) (and (distinct (_ bv0 32) (bvsmod ?x2523 (_ bv100 32))) true)) (= (_ bv0 32) (bvsmod ?x2523 (_ bv400 32))))))
(let (($x3921 (= (_ bv2 32) ?x5971)))
(let ((?x2842 (ite $x3921 (ite $x4343 (_ bv29 32) (_ bv28 32)) (ite (or $x5995 $x5802 $x1951 $x4696) (_ bv30 32) (_ bv31 32)))))
(let ((?x3698 (ite $x2817 (_ bv1 32) (ite (bvsgt x_day ?x2842) ?x2842 x_day))))
(let ((?x2858 (ite (bvsgt (_ bv1 32) ?x3698) (_ bv1 32) (ite (bvsgt ?x3698 ?x2842) ?x2842 ?x3698))))
(let ((?x1783 (ite $x3921 (ite $x4343 (_ bv31 32) (_ bv31 32)) (ite (= (_ bv1 32) ?x5971) (ite $x4343 (_ bv0 32) (_ bv0 32)) (_ bv0 32)))))
(let ((?x2183 (ite $x5995 (ite $x4343 (_ bv91 32) (_ bv90 32)) (ite (= (_ bv3 32) ?x5971) (ite $x4343 (_ bv60 32) (_ bv59 32)) ?x1783))))
(let ((?x5823 (ite $x5802 (ite $x4343 (_ bv152 32) (_ bv151 32)) (ite (= (_ bv5 32) ?x5971) (ite $x4343 (_ bv121 32) (_ bv120 32)) ?x2183))))
(let ((?x4824 (ite (= (_ bv8 32) ?x5971) (ite $x4343 (_ bv213 32) (_ bv212 32)) (ite (= (_ bv7 32) ?x5971) (ite $x4343 (_ bv182 32) (_ bv181 32)) ?x5823))))
(let ((?x5722 (ite (= (_ bv10 32) ?x5971) (ite $x4343 (_ bv274 32) (_ bv273 32)) (ite $x1951 (ite $x4343 (_ bv244 32) (_ bv243 32)) ?x4824))))
(let ((?x3827 (ite (= (_ bv12 32) ?x5971) (ite $x4343 (_ bv335 32) (_ bv334 32)) (ite $x4696 (ite $x4343 (_ bv305 32) (_ bv304 32)) ?x5722))))
(let ((?x1490 (bvadd (bvmul (_ bv365 32) (bvsub ?x2523 (_ bv1 32))) (bvsdiv (bvsub ?x2523 (_ bv1 32)) (_ bv4 32)))))
(let ((?x3023 (bvadd (bvsub ?x1490 (bvsdiv (bvsub ?x2523 (_ bv1 32)) (_ bv100 32))) (bvsdiv (bvsub ?x2523 (_ bv1 32)) (_ bv400 32)))))
(let ((?x1728 (bvadd (bvadd (bvsub (bvadd (bvadd ?x3023 ?x3827) (bvsub ?x2858 (_ bv1 32))) (_ bv730179 32)) (_ bv0 32)) (_ bv730179 32))))
(let ((?x6055 (bvsmod ?x1728 (_ bv146097 32))))
(let ((?x1290 (bvsdiv ?x6055 (_ bv36524 32))))
(let ((?x5080 (ite (bvsle (_ bv4 32) ?x1290) (_ bv3 32) ?x1290)))
(let ((?x1517 (bvsub ?x6055 (bvmul ?x5080 (_ bv36524 32)))))
(let ((?x4847 (bvsmod ?x1517 (_ bv1461 32))))
(let ((?x5121 (bvsdiv ?x4847 (_ bv365 32))))
(let ((?x4213 (ite (bvsle (_ bv4 32) ?x5121) (_ bv3 32) ?x5121)))
(let ((?x1311 (bvadd (bvadd (bvmul (bvsdiv ?x1728 (_ bv146097 32)) (_ bv400 32)) (bvmul ?x5080 (_ bv100 32))) (bvmul (bvsdiv ?x1517 (_ bv1461 32)) (_ bv4 32)))))
(let ((?x4749 (bvadd (bvadd ?x1311 ?x4213) (_ bv1 32))))
(let (($x4618 (or (and (= (_ bv0 32) (bvsmod ?x4749 (_ bv4 32))) (and (distinct (_ bv0 32) (bvsmod ?x4749 (_ bv100 32))) true)) (= (_ bv0 32) (bvsmod ?x4749 (_ bv400 32))))))
(let ((?x1797 (bvsub ?x4847 (bvmul ?x4213 (_ bv365 32)))))
(let ((?x2926 (ite $x4618 (_ bv31 32) (_ bv31 32))))
(let (($x1329 (bvsge ?x1797 ?x2926)))
(let ((?x1655 (ite $x1329 (bvadd (bvsub ?x1797 ?x2926) (_ bv1 32)) (bvadd (bvsub ?x1797 (ite $x4618 (_ bv0 32) (_ bv0 32))) (_ bv1 32)))))
(let ((?x4500 (ite $x4618 (_ bv60 32) (_ bv59 32))))
(let (($x2873 (bvsge ?x1797 ?x4500)))
(let ((?x5078 (ite $x4618 (_ bv91 32) (_ bv90 32))))
(let (($x1640 (bvsge ?x1797 ?x5078)))
(let ((?x3867 (ite $x1640 (bvadd (bvsub ?x1797 ?x5078) (_ bv1 32)) (ite $x2873 (bvadd (bvsub ?x1797 ?x4500) (_ bv1 32)) ?x1655))))
(let ((?x5444 (ite $x4618 (_ bv121 32) (_ bv120 32))))
(let (($x1942 (bvsge ?x1797 ?x5444)))
(let ((?x3430 (ite $x4618 (_ bv152 32) (_ bv151 32))))
(let (($x3187 (bvsge ?x1797 ?x3430)))
(let ((?x5504 (ite $x3187 (bvadd (bvsub ?x1797 ?x3430) (_ bv1 32)) (ite $x1942 (bvadd (bvsub ?x1797 ?x5444) (_ bv1 32)) ?x3867))))
(let ((?x931 (ite $x4618 (_ bv182 32) (_ bv181 32))))
(let (($x3972 (bvsge ?x1797 ?x931)))
(let ((?x3379 (ite $x4618 (_ bv213 32) (_ bv212 32))))
(let (($x3125 (bvsge ?x1797 ?x3379)))
(let ((?x3307 (ite $x3125 (bvadd (bvsub ?x1797 ?x3379) (_ bv1 32)) (ite $x3972 (bvadd (bvsub ?x1797 ?x931) (_ bv1 32)) ?x5504))))
(let ((?x1703 (ite $x4618 (_ bv244 32) (_ bv243 32))))
(let (($x789 (bvsge ?x1797 ?x1703)))
(let ((?x5311 (ite $x4618 (_ bv274 32) (_ bv273 32))))
(let (($x1901 (bvsge ?x1797 ?x5311)))
(let ((?x5155 (ite $x1901 (bvadd (bvsub ?x1797 ?x5311) (_ bv1 32)) (ite $x789 (bvadd (bvsub ?x1797 ?x1703) (_ bv1 32)) ?x3307))))
(let ((?x4011 (ite $x4618 (_ bv305 32) (_ bv304 32))))
(let (($x2358 (bvsge ?x1797 ?x4011)))
(let ((?x2059 (ite $x4618 (_ bv335 32) (_ bv334 32))))
(let (($x2370 (bvsge ?x1797 ?x2059)))
(let ((?x6175 (ite $x2370 (bvadd (bvsub ?x1797 ?x2059) (_ bv1 32)) (ite $x2358 (bvadd (bvsub ?x1797 ?x4011) (_ bv1 32)) ?x5155))))
(let (($x1185 (= (_ bv0 32) (_ bv0 32))))
(let ((?x5037 (ite $x4945 (_ bv6 32) (ite $x5125 (_ bv5 32) (ite $x5106 (_ bv4 32) (ite $x1159 (_ bv3 32) (ite $x3274 (_ bv2 32) (_ bv1 32))))))))
(let ((?x3037 (ite $x3613 (_ bv11 32) (ite $x5711 (_ bv10 32) (ite $x5269 (_ bv9 32) (ite $x4137 (_ bv8 32) (ite $x4102 (_ bv7 32) ?x5037)))))))
(let ((?x4818 (ite $x4943 (_ bv12 32) ?x3037)))
(let ((?x3104 (ite $x3187 (_ bv6 32) (ite $x1942 (_ bv5 32) (ite $x1640 (_ bv4 32) (ite $x2873 (_ bv3 32) (ite $x1329 (_ bv2 32) (_ bv1 32))))))))
(let ((?x3653 (ite $x2358 (_ bv11 32) (ite $x1901 (_ bv10 32) (ite $x789 (_ bv9 32) (ite $x3125 (_ bv8 32) (ite $x3972 (_ bv7 32) ?x3104)))))))
(and (= (ite $x1185 ?x2523 ?x4749) (ite $x3518 ?x1756 ?x4170)) (= (ite $x1185 ?x5971 (ite $x2370 (_ bv12 32) ?x3653)) (ite $x3518 ?x2836 ?x4818)) (= (ite $x1185 ?x2858 ?x6175) (ite $x3518 ?x5546 ?x3292))))))))))))))))))))))))))))))))))))))))))))))))))))))))))))))))))))))))))))))))))))))))))))))))))))))))))))))))))))))))))))))))))))))))))))
(check-sat)
